proyfinal/src/viki/013/experimentInOfficeAgust.take6.output/5f0a7364-d152-40b5-ac7d-9e50c2fdd4a0.als.dat
{'cnf.clauses': '118081',
 'cnf.totvars': '69608',
 'conflict literals': '5',
 'conflicts': '5',
 'decisions': '5301',
 'memused.mb': '17.32',
 'outcome': 'UNSAT',
 'propagations': '29645',
 'restarts': '1',
 'solver.msecs': 37,
 'task.msecs': 94}
