proyfinal/src/viki/013/experimentInOfficeAgust.take6.output/5f0a7364-d152-40b5-ac7d-9e50c2fdd4a0.als.out
Reading from standard input... Use '--help' for help.
============================[ Problem Statistics ]=============================
|                                                                             |
|  Number of variables:         69608                                         |
|  Number of clauses:          118081                                         |
|  Parse time:                   0.03 s                                       |
|                                                                             |
============================[ Search Statistics ]==============================
| Conflicts |          ORIGINAL         |          LEARNT          | Progress |
|           |    Vars  Clauses Literals |    Limit  Clauses Lit/Cl |          |
===============================================================================
===============================================================================
restarts              : 1
conflicts             : 5              (132 /sec)
decisions             : 5301           (0.00 % random) (139511 /sec)
propagations          : 29645          (780193 /sec)
conflict literals     : 5              (0.00 % deleted)
Memory used           : 17.32 MB
CPU time              : 0.037997 s

UNSATISFIABLE
